65
1 1 2
2 1 3
3 1 4
4 1 5
5 1 6
6 1 7
7 1 8 
8 1 9
9 1 10
10 1 11
11 1 12
12 2 3
13 2 4
14 2 5
15 2 6
16 2 7
17 2 8
18 2 9
19 2 10
20 2 11
21 2 12
22 3 4
23 3 5
24 3 6
25 3 7
26 3 8
27 3 9
28 3 10
29 3 11
30 3 12
31 4 5 
32 4 6
33 4 7
34 4 8
35 4 9
36 4 10
37 4 11
38 4 12
39 5 6
40 5 7
41 5 8
42 5 9
42 5 10
43 5 11
44 5 12
45 6 7
46 6 8
47 6 9
48 6 10
49 6 11
50 6 12
51 7 8
52 7 9
53 7 10
54 7 11
55 7 12
56 8 9
57 8 10
58 8 11
59 8 12
60 9 10
61 9 11
62 9 12
63 10 11
64 10 12
65 11 12